(declare-fun A (Int Int) Int)
(assert (and  
(< 0 (A 1 1)) (> 10 (A 1 1))
(< 0 (A 1 2)) (> 10 (A 1 2))
(< 0 (A 1 3)) (> 10 (A 1 3))
(< 0 (A 1 4)) (> 10 (A 1 4))
(< 0 (A 1 5)) (> 10 (A 1 5))
(< 0 (A 1 6)) (> 10 (A 1 6))
(< 0 (A 1 7)) (> 10 (A 1 7))
(< 0 (A 1 8)) (> 10 (A 1 8))
(< 0 (A 1 9)) (> 10 (A 1 9))
(< 0 (A 2 1)) (> 10 (A 2 1))
(< 0 (A 2 2)) (> 10 (A 2 2))
(< 0 (A 2 3)) (> 10 (A 2 3))
(< 0 (A 2 4)) (> 10 (A 2 4))
(< 0 (A 2 5)) (> 10 (A 2 5))
(< 0 (A 2 6)) (> 10 (A 2 6))
(< 0 (A 2 7)) (> 10 (A 2 7))
(< 0 (A 2 8)) (> 10 (A 2 8))
(< 0 (A 2 9)) (> 10 (A 2 9))
(< 0 (A 3 1)) (> 10 (A 3 1))
(< 0 (A 3 2)) (> 10 (A 3 2))
(< 0 (A 3 3)) (> 10 (A 3 3))
(< 0 (A 3 4)) (> 10 (A 3 4))
(< 0 (A 3 5)) (> 10 (A 3 5))
(< 0 (A 3 6)) (> 10 (A 3 6))
(< 0 (A 3 7)) (> 10 (A 3 7))
(< 0 (A 3 8)) (> 10 (A 3 8))
(< 0 (A 3 9)) (> 10 (A 3 9))
(< 0 (A 4 1)) (> 10 (A 4 1))
(< 0 (A 4 2)) (> 10 (A 4 2))
(< 0 (A 4 3)) (> 10 (A 4 3))
(< 0 (A 4 4)) (> 10 (A 4 4))
(< 0 (A 4 5)) (> 10 (A 4 5))
(< 0 (A 4 6)) (> 10 (A 4 6))
(< 0 (A 4 7)) (> 10 (A 4 7))
(< 0 (A 4 8)) (> 10 (A 4 8))
(< 0 (A 4 9)) (> 10 (A 4 9))
(< 0 (A 5 1)) (> 10 (A 5 1))
(< 0 (A 5 2)) (> 10 (A 5 2))
(< 0 (A 5 3)) (> 10 (A 5 3))
(< 0 (A 5 4)) (> 10 (A 5 4))
(< 0 (A 5 5)) (> 10 (A 5 5))
(< 0 (A 5 6)) (> 10 (A 5 6))
(< 0 (A 5 7)) (> 10 (A 5 7))
(< 0 (A 5 8)) (> 10 (A 5 8))
(< 0 (A 5 9)) (> 10 (A 5 9))
(< 0 (A 6 1)) (> 10 (A 6 1))
(< 0 (A 6 2)) (> 10 (A 6 2))
(< 0 (A 6 3)) (> 10 (A 6 3))
(< 0 (A 6 4)) (> 10 (A 6 4))
(< 0 (A 6 5)) (> 10 (A 6 5))
(< 0 (A 6 6)) (> 10 (A 6 6))
(< 0 (A 6 7)) (> 10 (A 6 7))
(< 0 (A 6 8)) (> 10 (A 6 8))
(< 0 (A 6 9)) (> 10 (A 6 9))
(< 0 (A 7 1)) (> 10 (A 7 1))
(< 0 (A 7 2)) (> 10 (A 7 2))
(< 0 (A 7 3)) (> 10 (A 7 3))
(< 0 (A 7 4)) (> 10 (A 7 4))
(< 0 (A 7 5)) (> 10 (A 7 5))
(< 0 (A 7 6)) (> 10 (A 7 6))
(< 0 (A 7 7)) (> 10 (A 7 7))
(< 0 (A 7 8)) (> 10 (A 7 8))
(< 0 (A 7 9)) (> 10 (A 7 9))
(< 0 (A 8 1)) (> 10 (A 8 1))
(< 0 (A 8 2)) (> 10 (A 8 2))
(< 0 (A 8 3)) (> 10 (A 8 3))
(< 0 (A 8 4)) (> 10 (A 8 4))
(< 0 (A 8 5)) (> 10 (A 8 5))
(< 0 (A 8 6)) (> 10 (A 8 6))
(< 0 (A 8 7)) (> 10 (A 8 7))
(< 0 (A 8 8)) (> 10 (A 8 8))
(< 0 (A 8 9)) (> 10 (A 8 9))
(< 0 (A 9 1)) (> 10 (A 9 1))
(< 0 (A 9 2)) (> 10 (A 9 2))
(< 0 (A 9 3)) (> 10 (A 9 3))
(< 0 (A 9 4)) (> 10 (A 9 4))
(< 0 (A 9 5)) (> 10 (A 9 5))
(< 0 (A 9 6)) (> 10 (A 9 6))
(< 0 (A 9 7)) (> 10 (A 9 7))
(< 0 (A 9 8)) (> 10 (A 9 8))
(< 0 (A 9 9)) (> 10 (A 9 9))
(distinct
 (A 1 1) (A 1 2) (A 1 3) (A 1 4) (A 1 5) (A 1 6) (A 1 7) (A 1 8) (A 1 9))
(distinct
 (A 2 1) (A 2 2) (A 2 3) (A 2 4) (A 2 5) (A 2 6) (A 2 7) (A 2 8) (A 2 9))
(distinct
 (A 3 1) (A 3 2) (A 3 3) (A 3 4) (A 3 5) (A 3 6) (A 3 7) (A 3 8) (A 3 9))
(distinct
 (A 4 1) (A 4 2) (A 4 3) (A 4 4) (A 4 5) (A 4 6) (A 4 7) (A 4 8) (A 4 9))
(distinct
 (A 5 1) (A 5 2) (A 5 3) (A 5 4) (A 5 5) (A 5 6) (A 5 7) (A 5 8) (A 5 9))
(distinct
 (A 6 1) (A 6 2) (A 6 3) (A 6 4) (A 6 5) (A 6 6) (A 6 7) (A 6 8) (A 6 9))
(distinct
 (A 7 1) (A 7 2) (A 7 3) (A 7 4) (A 7 5) (A 7 6) (A 7 7) (A 7 8) (A 7 9))
(distinct
 (A 8 1) (A 8 2) (A 8 3) (A 8 4) (A 8 5) (A 8 6) (A 8 7) (A 8 8) (A 8 9))
(distinct
 (A 9 1) (A 9 2) (A 9 3) (A 9 4) (A 9 5) (A 9 6) (A 9 7) (A 9 8) (A 9 9))
(distinct
 (A 1 1) (A 2 1) (A 3 1) (A 4 1) (A 5 1) (A 6 1) (A 7 1) (A 8 1) (A 9 1))
(distinct
 (A 1 2) (A 2 2) (A 3 2) (A 4 2) (A 5 2) (A 6 2) (A 7 2) (A 8 2) (A 9 2))
(distinct
 (A 1 3) (A 2 3) (A 3 3) (A 4 3) (A 5 3) (A 6 3) (A 7 3) (A 8 3) (A 9 3))
(distinct
 (A 1 4) (A 2 4) (A 3 4) (A 4 4) (A 5 4) (A 6 4) (A 7 4) (A 8 4) (A 9 4))
(distinct
 (A 1 5) (A 2 5) (A 3 5) (A 4 5) (A 5 5) (A 6 5) (A 7 5) (A 8 5) (A 9 5))
(distinct
 (A 1 6) (A 2 6) (A 3 6) (A 4 6) (A 5 6) (A 6 6) (A 7 6) (A 8 6) (A 9 6))
(distinct
 (A 1 7) (A 2 7) (A 3 7) (A 4 7) (A 5 7) (A 6 7) (A 7 7) (A 8 7) (A 9 7))
(distinct
 (A 1 8) (A 2 8) (A 3 8) (A 4 8) (A 5 8) (A 6 8) (A 7 8) (A 8 8) (A 9 8))
(distinct
 (A 1 9) (A 2 9) (A 3 9) (A 4 9) (A 5 9) (A 6 9) (A 7 9) (A 8 9) (A 9 9))
(distinct
 (A 1 1) (A 1 2) (A 1 3) (A 2 1) (A 2 2) (A 2 3) (A 3 1) (A 3 2) (A 3 3))
(distinct
 (A 1 4) (A 1 5) (A 1 6) (A 2 4) (A 2 5) (A 2 6) (A 3 4) (A 3 5) (A 3 6))
(distinct
 (A 1 7) (A 1 8) (A 1 9) (A 2 7) (A 2 8) (A 2 9) (A 3 7) (A 3 8) (A 3 9))
(distinct
 (A 4 1) (A 4 2) (A 4 3) (A 5 1) (A 5 2) (A 5 3) (A 6 1) (A 6 2) (A 6 3))
(distinct
 (A 4 4) (A 4 5) (A 4 6) (A 5 4) (A 5 5) (A 5 6) (A 6 4) (A 6 5) (A 6 6))
(distinct
 (A 4 7) (A 4 8) (A 4 9) (A 5 7) (A 5 8) (A 5 9) (A 6 7) (A 6 8) (A 6 9))
(distinct
 (A 7 1) (A 7 2) (A 7 3) (A 8 1) (A 8 2) (A 8 3) (A 9 1) (A 9 2) (A 9 3))
(distinct
 (A 7 4) (A 7 5) (A 7 6) (A 8 4) (A 8 5) (A 8 6) (A 9 4) (A 9 5) (A 9 6))
(distinct
 (A 7 7) (A 7 8) (A 7 9) (A 8 7) (A 8 8) (A 8 9) (A 9 7) (A 9 8) (A 9 9))
(= 9 (A 1 3))
(= 8 (A 1 4))
(= 5 (A 1 5))
(= 6 (A 1 6))
(= 8 (A 2 2))
(= 9 (A 2 6))
(= 2 (A 3 1))
(= 7 (A 3 6))
(= 7 (A 4 1))
(= 1 (A 4 6))
(= 3 (A 4 7))
(= 9 (A 4 8))
(= 6 (A 4 9))
(= 9 (A 5 1))
(= 6 (A 5 5))
(= 5 (A 5 9))
(= 5 (A 6 1))
(= 3 (A 6 2))
(= 6 (A 6 3))
(= 2 (A 6 4))
(= 7 (A 6 9))
(= 9 (A 7 4))
(= 1 (A 7 9))
(= 3 (A 8 4))
(= 6 (A 8 8))
(= 6 (A 9 4))
(= 8 (A 9 5))
(= 2 (A 9 6))
(= 4 (A 9 7))
))
(check-sat)
(get-model)
